20	5
0	5	1	5	3	4	2
1	3	19	8	7
2	1	8
3	2	11	16
4	1	21
5	2	19	13
6	1	17
7	1	13
8	1	13
9	1	6
10	1	9
11	1	18
12	1	10
13	1	12
14	2	16	11
15	1	14
16	1	18
17	1	14
18	1	20
19	2	9	15
20	1	21
21	0
0	0	0	0	0	0	0
1	2	3	4	2	2	0
2	7	3	0	0	0	0
3	4	0	1	0	0	0
4	9	3	0	1	1	3
5	4	4	2	2	5	0
6	2	5	5	5	1	0
7	3	3	3	2	1	5
8	5	3	5	3	1	4
9	2	5	0	0	0	5
10	7	0	5	0	2	0
11	2	1	5	0	0	0
12	2	4	0	1	1	3
13	1	2	3	3	5	3
14	1	3	5	2	1	2
15	10	4	5	1	3	2
16	6	2	2	1	1	1
17	7	2	3	5	2	1
18	3	4	3	0	3	0
19	3	5	4	5	4	4
20	2	0	5	1	3	5
21	0	0	0	0	0	0
5	5	5	5	5
